VRPTWMS/instances/mip/0_2_Customer.csv
//V	Name	X	Y	st	e	l	Demand
Depot	d0	24	16	0	0	100	0
Vertice	c1	12	42	1	0	50	1
Vertice	c2	4	2	2	50	100	2

//Arc	From	To	Dist	t	f
Arc	d0	c1	10	1	2
Arc	d0	c2	10	1	2
Arc	c1	c2	10	1	2

//Opt	Name	Value
Option	T_DV	100
Option	T_SV	100
Option	C_DV	3
Option	C_SV	30
Option	F	10
Option	b	2
Option	c	100