VRPTWMS/0_2_Customer.csv.log

Gurobi 6.0.2 (win64) logging started 04/08/15 21:20:55

Optimize a model with 6 rows, 6 columns and 4 nonzeros
Coefficient statistics:
  Matrix range    [1e+00, 1e+00]
  Objective range [1e+01, 1e+01]
  Bounds range    [1e+00, 1e+00]
  RHS range       [1e+00, 1e+00]
Found heuristic solution: objective 40
Presolve removed 6 rows and 6 columns
Presolve time: 0.01s

Explored 0 nodes (0 simplex iterations) in 0.01 seconds
Thread count was 1 (of 4 available processors)

Optimal solution found (tolerance 1.00e-04)
Best objective 4.000000000000e+01, best bound 4.000000000000e+01, gap 0.0%

Gurobi 6.0.2 (win64) logging started 04/08/15 21:23:11

Optimize a model with 6 rows, 6 columns and 4 nonzeros
Coefficient statistics:
  Matrix range    [1e+00, 1e+00]
  Objective range [1e+01, 4e+01]
  Bounds range    [1e+00, 1e+00]
  RHS range       [1e+00, 1e+00]
Found heuristic solution: objective 100
Presolve removed 6 rows and 6 columns
Presolve time: 0.00s

Explored 0 nodes (0 simplex iterations) in 0.00 seconds
Thread count was 1 (of 4 available processors)

Optimal solution found (tolerance 1.00e-04)
Best objective 1.000000000000e+02, best bound 1.000000000000e+02, gap 0.0%

Gurobi 6.0.2 (win64) logging started 04/08/15 21:58:21

Optimize a model with 12 rows, 9 columns and 10 nonzeros
Coefficient statistics:
  Matrix range    [1e+00, 1e+00]
  Objective range [1e+01, 1e+01]
  Bounds range    [1e+00, 1e+01]
  RHS range       [1e+00, 2e+01]
Found heuristic solution: objective 40
Presolve removed 12 rows and 9 columns
Presolve time: 0.00s

Explored 0 nodes (0 simplex iterations) in 0.00 seconds
Thread count was 1 (of 4 available processors)

Optimal solution found (tolerance 1.00e-04)
Best objective 4.000000000000e+01, best bound 4.000000000000e+01, gap 0.0%

Gurobi 6.0.2 (win64) logging started 04/08/15 22:02:38

Optimize a model with 12 rows, 9 columns and 10 nonzeros
Coefficient statistics:
  Matrix range    [1e+00, 1e+00]
  Objective range [1e+01, 1e+01]
  Bounds range    [1e+00, 1e+01]
  RHS range       [1e+00, 2e+01]
Found heuristic solution: objective 40
Presolve removed 12 rows and 9 columns
Presolve time: 0.00s

Explored 0 nodes (0 simplex iterations) in 0.00 seconds
Thread count was 1 (of 4 available processors)

Optimal solution found (tolerance 1.00e-04)
Best objective 4.000000000000e+01, best bound 4.000000000000e+01, gap 0.0%

Gurobi 6.0.2 (win64) logging started 04/08/15 22:07:45

Optimize a model with 12 rows, 9 columns and 17 nonzeros
Coefficient statistics:
  Matrix range    [1e+00, 2e+00]
  Objective range [1e+01, 1e+01]
  Bounds range    [1e+00, 1e+01]
  RHS range       [1e+00, 2e+01]
Found heuristic solution: objective 60
Presolve removed 12 rows and 9 columns
Presolve time: 0.00s

Explored 0 nodes (0 simplex iterations) in 0.00 seconds
Thread count was 1 (of 4 available processors)

Optimal solution found (tolerance 1.00e-04)
Best objective 6.000000000000e+01, best bound 6.000000000000e+01, gap 0.0%

Gurobi 6.0.2 (win64) logging started 04/08/15 22:25:39

Optimize a model with 10 rows, 8 columns and 15 nonzeros
Coefficient statistics:
  Matrix range    [1e+00, 1e+00]
  Objective range [1e+01, 1e+01]
  Bounds range    [1e+00, 1e+01]
  RHS range       [1e+00, 2e+01]
Found heuristic solution: objective 40
Presolve removed 10 rows and 8 columns
Presolve time: 0.00s

Explored 0 nodes (0 simplex iterations) in 0.00 seconds
Thread count was 1 (of 4 available processors)

Optimal solution found (tolerance 1.00e-04)
Best objective 3.000000000000e+01, best bound 3.000000000000e+01, gap 0.0%

Gurobi 6.0.2 (win64) logging started 04/08/15 22:26:09

Optimize a model with 10 rows, 8 columns and 15 nonzeros
Coefficient statistics:
  Matrix range    [1e+00, 1e+00]
  Objective range [1e+01, 1e+01]
  Bounds range    [1e+00, 1e+01]
  RHS range       [1e+00, 2e+01]
Found heuristic solution: objective 40
Presolve removed 10 rows and 8 columns
Presolve time: 0.00s

Explored 0 nodes (0 simplex iterations) in 0.00 seconds
Thread count was 1 (of 4 available processors)

Optimal solution found (tolerance 1.00e-04)
Best objective 3.000000000000e+01, best bound 3.000000000000e+01, gap 0.0%

Gurobi 6.0.2 (win64) logging started 04/08/15 22:26:49

Optimize a model with 10 rows, 8 columns and 15 nonzeros
Coefficient statistics:
  Matrix range    [1e+00, 1e+00]
  Objective range [1e+01, 1e+01]
  Bounds range    [1e+00, 1e+01]
  RHS range       [1e+00, 2e+01]
Found heuristic solution: objective 40
Presolve removed 10 rows and 8 columns
Presolve time: 0.00s

Explored 0 nodes (0 simplex iterations) in 0.00 seconds
Thread count was 1 (of 4 available processors)

Optimal solution found (tolerance 1.00e-04)
Best objective 3.000000000000e+01, best bound 3.000000000000e+01, gap 0.0%

Gurobi 6.0.2 (win64) logging started 04/08/15 22:27:49

Optimize a model with 10 rows, 8 columns and 15 nonzeros
Coefficient statistics:
  Matrix range    [1e+00, 1e+00]
  Objective range [1e+01, 1e+01]
  Bounds range    [1e+00, 1e+01]
  RHS range       [1e+00, 2e+01]
Found heuristic solution: objective 40
Presolve removed 10 rows and 8 columns
Presolve time: 0.00s

Explored 0 nodes (0 simplex iterations) in 0.00 seconds
Thread count was 1 (of 4 available processors)

Optimal solution found (tolerance 1.00e-04)
Best objective 3.000000000000e+01, best bound 3.000000000000e+01, gap 0.0%

Gurobi 6.0.2 (win64) logging started 04/08/15 22:29:03

Optimize a model with 10 rows, 8 columns and 15 nonzeros
Coefficient statistics:
  Matrix range    [1e+00, 1e+00]
  Objective range [1e+01, 1e+01]
  Bounds range    [1e+00, 1e+01]
  RHS range       [1e+00, 2e+01]
Found heuristic solution: objective 40
Presolve removed 10 rows and 8 columns
Presolve time: 0.00s

Explored 0 nodes (0 simplex iterations) in 0.00 seconds
Thread count was 1 (of 4 available processors)

Optimal solution found (tolerance 1.00e-04)
Best objective 3.000000000000e+01, best bound 3.000000000000e+01, gap 0.0%

Gurobi 6.0.2 (win64) logging started 04/08/15 22:35:56

Optimize a model with 12 rows, 8 columns and 17 nonzeros
Coefficient statistics:
  Matrix range    [1e+00, 1e+00]
  Objective range [1e+01, 1e+01]
  Bounds range    [1e+00, 1e+01]
  RHS range       [1e+00, 2e+01]
Presolve removed 2 rows and 2 columns
Presolve time: 0.00s

Explored 0 nodes (0 simplex iterations) in 0.00 seconds
Thread count was 1 (of 4 available processors)

Model is infeasible
Best objective -, best bound -, gap -

Gurobi 6.0.2 (win64) logging started 04/08/15 22:36:11

Optimize a model with 12 rows, 8 columns and 17 nonzeros
Coefficient statistics:
  Matrix range    [1e+00, 1e+00]
  Objective range [1e+01, 1e+01]
  Bounds range    [1e+00, 1e+01]
  RHS range       [1e+00, 2e+01]
Found heuristic solution: objective 40
Presolve removed 12 rows and 8 columns
Presolve time: 0.00s

Explored 0 nodes (0 simplex iterations) in 0.00 seconds
Thread count was 1 (of 4 available processors)

Optimal solution found (tolerance 1.00e-04)
Best objective 3.000000000000e+01, best bound 3.000000000000e+01, gap 0.0%

Gurobi 6.0.2 (win64) logging started 04/10/15 10:12:07

Optimize a model with 12 rows, 8 columns and 17 nonzeros
Coefficient statistics:
  Matrix range    [1e+00, 1e+00]
  Objective range [1e+01, 1e+01]
  Bounds range    [1e+00, 1e+01]
  RHS range       [1e+00, 2e+01]
Found heuristic solution: objective 40
Presolve removed 12 rows and 8 columns
Presolve time: 0.00s

Explored 0 nodes (0 simplex iterations) in 0.00 seconds
Thread count was 1 (of 4 available processors)

Optimal solution found (tolerance 1.00e-04)
Best objective 3.000000000000e+01, best bound 3.000000000000e+01, gap 0.0%

Gurobi 6.0.2 (win64) logging started 04/10/15 11:06:23

Optimize a model with 12 rows, 8 columns and 17 nonzeros
Coefficient statistics:
  Matrix range    [1e+00, 1e+00]
  Objective range [1e+01, 1e+01]
  Bounds range    [1e+00, 1e+01]
  RHS range       [1e+00, 2e+01]
Found heuristic solution: objective 40
Presolve removed 12 rows and 8 columns
Presolve time: 0.00s

Explored 0 nodes (0 simplex iterations) in 0.00 seconds
Thread count was 1 (of 4 available processors)

Optimal solution found (tolerance 1.00e-04)
Best objective 3.000000000000e+01, best bound 3.000000000000e+01, gap 0.0%
